RAW/XQ/fspd/X-n190-k8.vrp_seed-0.out
13661	28.463	29.165
