RAW/XQ/fspd/X-n190-k8.vrp_seed-0.sol
Route #1: 135 121 158 164 23 113 91 9 114 65 20 53 154 189 140 124 187 27 15 76 40 32 61 180 153 84 18 185 70 141 98 148 167 136 183 25 64 188
Route #2: 118 67 51 93 75 69 55 59 96 3 90 42 130 56 8 100 62 179 178 21 68 50 94 144 115 145 81 92 46 108 156 149
Route #3: 106 119 49 26 117 175 11 122 82 116 60 79 17 155 7 162 33 107 111 74 161 134 132 173 157 166 170 16 14 31
Route #4: 37 131 99 45 184 182 160 165 1 139 72 129 133 44 127 171 110 66 63 57 19 105
Route #5: 13 4 34 73 43 58 28 138 85 80 147 150 30 39 36 2 38 6 35 109 89 104 142 159 10 103 88 83 29
Route #6: 163 128 95 143 97 24 12 176 5 47 101 71 52 123 177 146 186 87 152 41 181 126 54 48 174 151 137 125 86 77 22 78 169 112 102 168 120 172
Cost 13661.000000